NAME : ClusterId_1034 
COMMENT : (Gillet and Johnson) 
TYPE : CVRP 
DIMENSION : 14 
EDGE_WEIGHT_TYPE : EUC_2D 
CAPACITY : 500 
NODE_COORD_SECTION 
1034 2000 2072 
28 2053 1348 
401 2303 1193 
151 2159 1732 
36 1953 2178 
979 2471 1292 
394 2092 2216 
721 2199 1974 
795 2744 1724 
8 2492 2292 
159 2832 1752 
108 2693 2043 
85 2902 1713 
177 2709 2268 
DEMAND_SECTION 
1034 571
28 43
401 30
151 30
36 46
979 48
394 37
721 39
795 45
8 50
159 50
108 51
85 40
177 34
DEPOT_SECTION 
1034
 -1
EOF